; benchmark generated from python API
(set-info :status unknown)
(declare-fun x_days () Int)
(declare-fun y_days () Int)
(assert
 (>= x_days (- 36584)))
(assert
 (<= x_days 36829))
(assert
 (>= y_days (- 36584)))
(assert
 (<= y_days 36829))
(assert
 (>= x_days 7244))
(assert
 (<= x_days 7276))
(assert
 (let (($x29 (or (and (= (mod 2000 4) 0) (and (distinct (mod 2000 100) 0) true)) (= (mod 2000 400) 0))))
 (let ((?x36 (ite (= 3 2) (ite $x29 31 31) (ite (= 3 1) (ite $x29 0 0) 0))))
 (let ((?x40 (ite $x29 60 59)))
 (let ((?x41 (ite (= 3 3) ?x40 ?x36)))
 (let ((?x46 (ite (= 3 4) (ite $x29 91 90) ?x41)))
 (let ((?x52 (ite (= 3 5) (ite $x29 121 120) ?x46)))
 (let ((?x58 (ite (= 3 6) (ite $x29 152 151) ?x52)))
 (let ((?x64 (ite (= 3 7) (ite $x29 182 181) ?x58)))
 (let ((?x70 (ite (= 3 8) (ite $x29 213 212) ?x64)))
 (let ((?x76 (ite (= 3 9) (ite $x29 244 243) ?x70)))
 (let ((?x82 (ite (= 3 10) (ite $x29 274 273) ?x76)))
 (let ((?x88 (ite (= 3 11) (ite $x29 305 304) ?x82)))
 (let ((?x16 (- (+ (* 365 (- 2000 1)) (div (- 2000 1) 4)) (div (- 2000 1) 100))))
 (let ((?x95 (+ (+ ?x16 (div (- 2000 1) 400)) (ite (= 3 12) (ite $x29 335 334) ?x88))))
 (let ((?x97 (+ ?x95 (- 1 1))))
 (let ((?x265 (+ x_days ?x97)))
 (let ((?x229 (mod ?x265 146097)))
 (let ((?x792 (div ?x229 36524)))
 (let ((?x450 (ite (<= 4 ?x792) 3 ?x792)))
 (let ((?x1174 (- ?x229 (* ?x450 36524))))
 (let ((?x312 (mod ?x1174 1461)))
 (let ((?x306 (div ?x312 365)))
 (let ((?x572 (ite (<= 4 ?x306) 3 ?x306)))
 (let ((?x433 (+ (+ (* (div ?x265 146097) 400) (* ?x450 100)) (* (div ?x1174 1461) 4))))
 (let ((?x346 (+ (+ ?x433 ?x572) 1)))
 (let (($x370 (or (and (= (mod ?x346 4) 0) (and (distinct (mod ?x346 100) 0) true)) (= (mod ?x346 400) 0))))
 (let ((?x490 (- ?x312 (* ?x572 365))))
 (let ((?x259 (ite $x370 31 31)))
 (let (($x892 (>= ?x490 ?x259)))
 (let ((?x355 (ite $x892 (+ (- ?x490 ?x259) 1) (+ (- ?x490 (ite $x370 0 0)) 1))))
 (let ((?x113 (ite $x370 60 59)))
 (let (($x110 (>= ?x490 ?x113)))
 (let ((?x451 (ite $x370 91 90)))
 (let (($x246 (>= ?x490 ?x451)))
 (let ((?x3215 (ite $x246 (+ (- ?x490 ?x451) 1) (ite $x110 (+ (- ?x490 ?x113) 1) ?x355))))
 (let ((?x1947 (ite $x370 121 120)))
 (let (($x466 (>= ?x490 ?x1947)))
 (let ((?x530 (ite $x370 152 151)))
 (let (($x278 (>= ?x490 ?x530)))
 (let ((?x107 (ite $x278 (+ (- ?x490 ?x530) 1) (ite $x466 (+ (- ?x490 ?x1947) 1) ?x3215))))
 (let ((?x482 (ite $x370 182 181)))
 (let (($x276 (>= ?x490 ?x482)))
 (let ((?x311 (ite $x370 213 212)))
 (let (($x2280 (>= ?x490 ?x311)))
 (let ((?x609 (ite $x2280 (+ (- ?x490 ?x311) 1) (ite $x276 (+ (- ?x490 ?x482) 1) ?x107))))
 (let ((?x287 (ite $x370 244 243)))
 (let (($x207 (>= ?x490 ?x287)))
 (let ((?x2509 (ite $x370 274 273)))
 (let (($x3121 (>= ?x490 ?x2509)))
 (let ((?x680 (ite $x3121 (+ (- ?x490 ?x2509) 1) (ite $x207 (+ (- ?x490 ?x287) 1) ?x609))))
 (let ((?x1256 (ite $x370 305 304)))
 (let (($x233 (>= ?x490 ?x1256)))
 (let ((?x255 (ite $x370 335 334)))
 (let (($x144 (>= ?x490 ?x255)))
 (let ((?x3251 (ite $x144 (+ (- ?x490 ?x255) 1) (ite $x233 (+ (- ?x490 ?x1256) 1) ?x680))))
 (let ((?x280 (ite $x466 5 (ite $x246 4 (ite $x110 3 (ite $x892 2 1))))))
 (let ((?x823 (ite $x207 9 (ite $x2280 8 (ite $x276 7 (ite $x278 6 ?x280))))))
 (let ((?x3511 (- (+ (ite $x144 12 (ite $x233 11 (ite $x3121 10 ?x823))) 0) 1)))
 (let ((?x570 (+ (mod ?x3511 12) 1)))
 (let ((?x1012 (ite (or (= ?x570 4) (= ?x570 6) (= ?x570 9) (= ?x570 11)) 30 31)))
 (let (($x317 (and (= (mod (+ (+ ?x346 1) (div ?x3511 12)) 4) 0) (and (distinct (mod (+ (+ ?x346 1) (div ?x3511 12)) 100) 0) true))))
 (let (($x251 (or $x317 (= (mod (+ (+ ?x346 1) (div ?x3511 12)) 400) 0))))
 (let (($x534 (= ?x570 2)))
 (let ((?x1440 (ite $x534 (ite $x251 29 28) ?x1012)))
 (let (($x2530 (> 1 ?x3251)))
 (let (($x905 (= 2 ?x570)))
 (let ((?x105 (ite $x905 (ite $x251 31 31) (ite (= 1 ?x570) (ite $x251 0 0) 0))))
 (let (($x284 (= 3 ?x570)))
 (let (($x310 (= 4 ?x570)))
 (let ((?x694 (ite $x310 (ite $x251 91 90) (ite $x284 (ite $x251 60 59) ?x105))))
 (let (($x353 (= 5 ?x570)))
 (let (($x3514 (= 6 ?x570)))
 (let ((?x634 (ite $x3514 (ite $x251 152 151) (ite $x353 (ite $x251 121 120) ?x694))))
 (let (($x319 (= 7 ?x570)))
 (let (($x2946 (= 8 ?x570)))
 (let ((?x2083 (ite $x2946 (ite $x251 213 212) (ite $x319 (ite $x251 182 181) ?x634))))
 (let (($x1187 (= 9 ?x570)))
 (let (($x697 (= 10 ?x570)))
 (let ((?x958 (ite $x697 (ite $x251 274 273) (ite $x1187 (ite $x251 244 243) ?x2083))))
 (let (($x679 (= 11 ?x570)))
 (let (($x757 (= 12 ?x570)))
 (let ((?x2817 (ite $x757 (ite $x251 335 334) (ite $x679 (ite $x251 305 304) ?x958))))
 (let ((?x2312 (+ (* 365 (- (+ (+ ?x346 1) (div ?x3511 12)) 1)) (div (- (+ (+ ?x346 1) (div ?x3511 12)) 1) 4))))
 (let ((?x2772 (+ (- ?x2312 (div (- (+ (+ ?x346 1) (div ?x3511 12)) 1) 100)) (div (- (+ (+ ?x346 1) (div ?x3511 12)) 1) 400))))
 (let ((?x1666 (+ (+ ?x2772 ?x2817) (- (ite $x2530 1 (ite (> ?x3251 ?x1440) ?x1440 ?x3251)) 1))))
 (= y_days (- (+ ?x1666 0) ?x97))))))))))))))))))))))))))))))))))))))))))))))))))))))))))))))))))))))))))))))))))))))))
(assert
 (let (($x29 (or (and (= (mod 2000 4) 0) (and (distinct (mod 2000 100) 0) true)) (= (mod 2000 400) 0))))
(let ((?x36 (ite (= 3 2) (ite $x29 31 31) (ite (= 3 1) (ite $x29 0 0) 0))))
(let ((?x40 (ite $x29 60 59)))
(let ((?x41 (ite (= 3 3) ?x40 ?x36)))
(let ((?x46 (ite (= 3 4) (ite $x29 91 90) ?x41)))
(let ((?x52 (ite (= 3 5) (ite $x29 121 120) ?x46)))
(let ((?x58 (ite (= 3 6) (ite $x29 152 151) ?x52)))
(let ((?x64 (ite (= 3 7) (ite $x29 182 181) ?x58)))
(let ((?x70 (ite (= 3 8) (ite $x29 213 212) ?x64)))
(let ((?x76 (ite (= 3 9) (ite $x29 244 243) ?x70)))
(let ((?x82 (ite (= 3 10) (ite $x29 274 273) ?x76)))
(let ((?x88 (ite (= 3 11) (ite $x29 305 304) ?x82)))
(let ((?x16 (- (+ (* 365 (- 2000 1)) (div (- 2000 1) 4)) (div (- 2000 1) 100))))
(let ((?x95 (+ (+ ?x16 (div (- 2000 1) 400)) (ite (= 3 12) (ite $x29 335 334) ?x88))))
(let ((?x97 (+ ?x95 (- 1 1))))
(let ((?x265 (+ x_days ?x97)))
(let ((?x229 (mod ?x265 146097)))
(let ((?x792 (div ?x229 36524)))
(let ((?x450 (ite (<= 4 ?x792) 3 ?x792)))
(let ((?x1174 (- ?x229 (* ?x450 36524))))
(let ((?x312 (mod ?x1174 1461)))
(let ((?x306 (div ?x312 365)))
(let ((?x572 (ite (<= 4 ?x306) 3 ?x306)))
(let ((?x433 (+ (+ (* (div ?x265 146097) 400) (* ?x450 100)) (* (div ?x1174 1461) 4))))
(let ((?x346 (+ (+ ?x433 ?x572) 1)))
(let (($x370 (or (and (= (mod ?x346 4) 0) (and (distinct (mod ?x346 100) 0) true)) (= (mod ?x346 400) 0))))
(let ((?x490 (- ?x312 (* ?x572 365))))
(let ((?x259 (ite $x370 31 31)))
(let (($x892 (>= ?x490 ?x259)))
(let ((?x355 (ite $x892 (+ (- ?x490 ?x259) 1) (+ (- ?x490 (ite $x370 0 0)) 1))))
(let ((?x113 (ite $x370 60 59)))
(let (($x110 (>= ?x490 ?x113)))
(let ((?x451 (ite $x370 91 90)))
(let (($x246 (>= ?x490 ?x451)))
(let ((?x3215 (ite $x246 (+ (- ?x490 ?x451) 1) (ite $x110 (+ (- ?x490 ?x113) 1) ?x355))))
(let ((?x1947 (ite $x370 121 120)))
(let (($x466 (>= ?x490 ?x1947)))
(let ((?x530 (ite $x370 152 151)))
(let (($x278 (>= ?x490 ?x530)))
(let ((?x107 (ite $x278 (+ (- ?x490 ?x530) 1) (ite $x466 (+ (- ?x490 ?x1947) 1) ?x3215))))
(let ((?x482 (ite $x370 182 181)))
(let (($x276 (>= ?x490 ?x482)))
(let ((?x311 (ite $x370 213 212)))
(let (($x2280 (>= ?x490 ?x311)))
(let ((?x609 (ite $x2280 (+ (- ?x490 ?x311) 1) (ite $x276 (+ (- ?x490 ?x482) 1) ?x107))))
(let ((?x287 (ite $x370 244 243)))
(let (($x207 (>= ?x490 ?x287)))
(let ((?x2509 (ite $x370 274 273)))
(let (($x3121 (>= ?x490 ?x2509)))
(let ((?x680 (ite $x3121 (+ (- ?x490 ?x2509) 1) (ite $x207 (+ (- ?x490 ?x287) 1) ?x609))))
(let ((?x1256 (ite $x370 305 304)))
(let (($x233 (>= ?x490 ?x1256)))
(let ((?x255 (ite $x370 335 334)))
(let (($x144 (>= ?x490 ?x255)))
(let ((?x3251 (ite $x144 (+ (- ?x490 ?x255) 1) (ite $x233 (+ (- ?x490 ?x1256) 1) ?x680))))
(let ((?x280 (ite $x466 5 (ite $x246 4 (ite $x110 3 (ite $x892 2 1))))))
(let ((?x823 (ite $x207 9 (ite $x2280 8 (ite $x276 7 (ite $x278 6 ?x280))))))
(let ((?x3511 (- (+ (ite $x144 12 (ite $x233 11 (ite $x3121 10 ?x823))) 0) 1)))
(let ((?x570 (+ (mod ?x3511 12) 1)))
(let ((?x1012 (ite (or (= ?x570 4) (= ?x570 6) (= ?x570 9) (= ?x570 11)) 30 31)))
(let (($x555 (and (= (mod (+ (+ ?x346 0) (div ?x3511 12)) 4) 0) (and (distinct (mod (+ (+ ?x346 0) (div ?x3511 12)) 100) 0) true))))
(let (($x330 (or $x555 (= (mod (+ (+ ?x346 0) (div ?x3511 12)) 400) 0))))
(let (($x534 (= ?x570 2)))
(let ((?x532 (ite $x534 (ite $x330 29 28) ?x1012)))
(let (($x2530 (> 1 ?x3251)))
(let (($x905 (= 2 ?x570)))
(let ((?x831 (ite $x905 (ite $x330 31 31) (ite (= 1 ?x570) (ite $x330 0 0) 0))))
(let (($x284 (= 3 ?x570)))
(let (($x310 (= 4 ?x570)))
(let ((?x607 (ite $x310 (ite $x330 91 90) (ite $x284 (ite $x330 60 59) ?x831))))
(let (($x353 (= 5 ?x570)))
(let (($x3514 (= 6 ?x570)))
(let ((?x523 (ite $x3514 (ite $x330 152 151) (ite $x353 (ite $x330 121 120) ?x607))))
(let (($x319 (= 7 ?x570)))
(let (($x2946 (= 8 ?x570)))
(let ((?x3186 (ite $x2946 (ite $x330 213 212) (ite $x319 (ite $x330 182 181) ?x523))))
(let (($x1187 (= 9 ?x570)))
(let (($x697 (= 10 ?x570)))
(let ((?x2846 (ite $x697 (ite $x330 274 273) (ite $x1187 (ite $x330 244 243) ?x3186))))
(let (($x679 (= 11 ?x570)))
(let (($x757 (= 12 ?x570)))
(let ((?x1471 (ite $x757 (ite $x330 335 334) (ite $x679 (ite $x330 305 304) ?x2846))))
(let ((?x209 (+ (* 365 (- (+ (+ ?x346 0) (div ?x3511 12)) 1)) (div (- (+ (+ ?x346 0) (div ?x3511 12)) 1) 4))))
(let ((?x331 (+ (- ?x209 (div (- (+ (+ ?x346 0) (div ?x3511 12)) 1) 100)) (div (- (+ (+ ?x346 0) (div ?x3511 12)) 1) 400))))
(let ((?x654 (+ (+ ?x331 ?x1471) (- (ite $x2530 1 (ite (> ?x3251 ?x532) ?x532 ?x3251)) 1))))
(not (= y_days (- (+ ?x654 365) ?x97)))))))))))))))))))))))))))))))))))))))))))))))))))))))))))))))))))))))))))))))))))))))))
(check-sat)
